p cnf 964 2475
51 -697 -1 0
-51 697 0
-51 1 0
52 -51 -698 0
-52 51 0
-52 698 0
53 -5 -4 0
-53 5 0
-53 4 0
54 -53 -6 0
-54 53 0
-54 6 0
55 -699 -700 0
-55 699 0
-55 700 0
56 -701 -7 0
-56 701 0
-56 7 0
57 -56 -702 0
-57 56 0
-57 702 0
58 -703 -55 0
-58 703 0
-58 55 0
59 -704 -705 0
-59 704 0
-59 705 0
60 -59 -12 0
-60 59 0
-60 12 0
61 -706 -58 0
-61 706 0
-61 58 0
62 -707 -13 0
-62 707 0
-62 13 0
63 -62 -708 0
-63 62 0
-63 708 0
64 -709 -61 0
-64 709 0
-64 61 0
65 -17 -710 0
-65 17 0
-65 710 0
66 -65 -711 0
-66 65 0
-66 711 0
67 -712 -64 0
-67 712 0
-67 64 0
68 -713 -19 0
-68 713 0
-68 19 0
69 -68 -21 0
-69 68 0
-69 21 0
70 -714 -67 0
-70 714 0
-70 67 0
71 -22 -18 0
-71 22 0
-71 18 0
72 -71 -715 0
-72 71 0
-72 715 0
73 -716 -70 0
-73 716 0
-73 70 0
74 -717 -718 0
-74 717 0
-74 718 0
75 -74 -719 0
-75 74 0
-75 719 0
76 -720 -73 0
-76 720 0
-76 73 0
77 -721 -701 0
-77 721 0
-77 701 0
78 -77 -722 0
-78 77 0
-78 722 0
79 -723 -76 0
-79 723 0
-79 76 0
80 -29 -8 0
-80 29 0
-80 8 0
81 -80 -724 0
-81 80 0
-81 724 0
82 -725 -79 0
-82 725 0
-82 79 0
83 -31 -29 0
-83 31 0
-83 29 0
84 -83 -726 0
-84 83 0
-84 726 0
85 -727 -82 0
-85 727 0
-85 82 0
86 -728 -19 0
-86 728 0
-86 19 0
87 -86 -23 0
-87 86 0
-87 23 0
88 -729 -85 0
-88 729 0
-88 85 0
89 -718 -730 0
-89 718 0
-89 730 0
90 -89 -5 0
-90 89 0
-90 5 0
91 -731 -88 0
-91 731 0
-91 88 0
92 -33 -710 0
-92 33 0
-92 710 0
93 -92 -721 0
-93 92 0
-93 721 0
94 -732 -91 0
-94 732 0
-94 91 0
95 -705 -726 0
-95 705 0
-95 726 0
96 -95 -12 0
-96 95 0
-96 12 0
97 -733 -94 0
-97 733 0
-97 94 0
98 -734 -34 0
-98 734 0
-98 34 0
99 -98 -36 0
-99 98 0
-99 36 0
100 -735 -97 0
-100 735 0
-100 97 0
101 -736 -737 0
-101 736 0
-101 737 0
102 -101 -27 0
-102 101 0
-102 27 0
103 -738 -100 0
-103 738 0
-103 100 0
104 -739 -698 0
-104 739 0
-104 698 0
105 -104 -6 0
-105 104 0
-105 6 0
106 -740 -103 0
-106 740 0
-106 103 0
107 -39 -33 0
-107 39 0
-107 33 0
108 -107 -40 0
-108 107 0
-108 40 0
109 -741 -106 0
-109 741 0
-109 106 0
110 -742 -737 0
-110 742 0
-110 737 0
111 -110 -42 0
-111 110 0
-111 42 0
112 -743 -109 0
-112 743 0
-112 109 0
113 -43 -30 0
-113 43 0
-113 30 0
114 -113 -27 0
-114 113 0
-114 27 0
115 -744 -112 0
-115 744 0
-115 112 0
116 -21 -745 0
-116 21 0
-116 745 0
117 -116 -746 0
-117 116 0
-117 746 0
118 -747 -115 0
-118 747 0
-118 115 0
119 -742 -31 0
-119 742 0
-119 31 0
120 -119 -17 0
-120 119 0
-120 17 0
121 -748 -118 0
-121 748 0
-121 118 0
122 -728 -24 0
-122 728 0
-122 24 0
123 -122 -749 0
-123 122 0
-123 749 0
124 -750 -121 0
-124 750 0
-124 121 0
125 -45 -33 0
-125 45 0
-125 33 0
126 -125 -29 0
-126 125 0
-126 29 0
127 -751 -124 0
-127 751 0
-127 124 0
128 -734 -702 0
-128 734 0
-128 702 0
129 -128 -752 0
-129 128 0
-129 752 0
130 -753 -127 0
-130 753 0
-130 127 0
131 -43 -22 0
-131 43 0
-131 22 0
132 -131 -721 0
-132 131 0
-132 721 0
133 -754 -130 0
-133 754 0
-133 130 0
134 -33 -25 0
-134 33 0
-134 25 0
135 -134 -3 0
-135 134 0
-135 3 0
136 -755 -133 0
-136 755 0
-136 133 0
137 -745 -10 0
-137 745 0
-137 10 0
138 -137 -734 0
-138 137 0
-138 734 0
139 -756 -136 0
-139 756 0
-139 136 0
140 -16 -9 0
-140 16 0
-140 9 0
141 -140 -757 0
-141 140 0
-141 757 0
142 -758 -139 0
-142 758 0
-142 139 0
143 -739 -718 0
-143 739 0
-143 718 0
144 -143 -37 0
-144 143 0
-144 37 0
145 -759 -142 0
-145 759 0
-145 142 0
146 -31 -19 0
-146 31 0
-146 19 0
147 -146 -44 0
-147 146 0
-147 44 0
148 -760 -145 0
-148 760 0
-148 145 0
149 -19 -702 0
-149 19 0
-149 702 0
150 -149 -721 0
-150 149 0
-150 721 0
151 -761 -148 0
-151 761 0
-151 148 0
152 -728 -9 0
-152 728 0
-152 9 0
153 -152 -736 0
-153 152 0
-153 736 0
154 -762 -151 0
-154 762 0
-154 151 0
155 -43 -742 0
-155 43 0
-155 742 0
156 -155 -757 0
-156 155 0
-156 757 0
157 -763 -154 0
-157 763 0
-157 154 0
158 -719 -15 0
-158 719 0
-158 15 0
159 -158 -715 0
-159 158 0
-159 715 0
160 -764 -157 0
-160 764 0
-160 157 0
161 -45 -11 0
-161 45 0
-161 11 0
162 -161 -765 0
-162 161 0
-162 765 0
163 -766 -160 0
-163 766 0
-163 160 0
164 -43 -3 0
-164 43 0
-164 3 0
165 -164 -36 0
-165 164 0
-165 36 0
166 -767 -163 0
-166 767 0
-166 163 0
167 -768 -769 0
-167 768 0
-167 769 0
168 -167 -746 0
-168 167 0
-168 746 0
169 -770 -166 0
-169 770 0
-169 166 0
170 -757 -2 0
-170 757 0
-170 2 0
171 -170 -771 0
-171 170 0
-171 771 0
172 -772 -169 0
-172 772 0
-172 169 0
173 -43 -5 0
-173 43 0
-173 5 0
174 -173 -773 0
-174 173 0
-174 773 0
175 -774 -172 0
-175 774 0
-175 172 0
176 -775 -708 0
-176 775 0
-176 708 0
177 -176 -773 0
-177 176 0
-177 773 0
178 -776 -175 0
-178 776 0
-178 175 0
179 -777 -778 0
-179 777 0
-179 778 0
180 -179 -6 0
-180 179 0
-180 6 0
181 -779 -178 0
-181 779 0
-181 178 0
182 -33 -8 0
-182 33 0
-182 8 0
183 -182 -697 0
-183 182 0
-183 697 0
184 -780 -181 0
-184 780 0
-184 181 0
185 -40 -1 0
-185 40 0
-185 1 0
186 -185 -781 0
-186 185 0
-186 781 0
187 -782 -184 0
-187 782 0
-187 184 0
188 -775 -45 0
-188 775 0
-188 45 0
189 -188 -1 0
-189 188 0
-189 1 0
190 -783 -187 0
-190 783 0
-190 187 0
191 -50 -705 0
-191 50 0
-191 705 0
192 -191 -784 0
-192 191 0
-192 784 0
193 -785 -190 0
-193 785 0
-193 190 0
194 -49 -16 0
-194 49 0
-194 16 0
195 -194 -18 0
-195 194 0
-195 18 0
196 -786 -193 0
-196 786 0
-196 193 0
197 -35 -13 0
-197 35 0
-197 13 0
198 -197 -48 0
-198 197 0
-198 48 0
199 -787 -196 0
-199 787 0
-199 196 0
200 -777 -788 0
-200 777 0
-200 788 0
201 -200 -707 0
-201 200 0
-201 707 0
202 -789 -199 0
-202 789 0
-202 199 0
203 -50 -2 0
-203 50 0
-203 2 0
204 -203 -22 0
-204 203 0
-204 22 0
205 -790 -202 0
-205 790 0
-205 202 0
206 -791 -715 0
-206 791 0
-206 715 0
207 -206 -36 0
-207 206 0
-207 36 0
208 -792 -205 0
-208 792 0
-208 205 0
209 -719 -730 0
-209 719 0
-209 730 0
210 -209 -21 0
-210 209 0
-210 21 0
211 -793 -208 0
-211 793 0
-211 208 0
212 -19 -11 0
-212 19 0
-212 11 0
213 -212 -44 0
-213 212 0
-213 44 0
214 -794 -211 0
-214 794 0
-214 211 0
215 -788 -9 0
-215 788 0
-215 9 0
216 -215 -795 0
-216 215 0
-216 795 0
217 -796 -214 0
-217 796 0
-217 214 0
218 -45 -778 0
-218 45 0
-218 778 0
219 -218 -21 0
-219 218 0
-219 21 0
220 -797 -217 0
-220 797 0
-220 217 0
221 -773 -795 0
-221 773 0
-221 795 0
222 -221 -23 0
-222 221 0
-222 23 0
223 -798 -220 0
-223 798 0
-223 220 0
224 -155 -2 0
-224 155 0
-224 2 0
225 -799 -223 0
-225 799 0
-225 223 0
226 -717 -22 0
-226 717 0
-226 22 0
227 -226 -44 0
-227 226 0
-227 44 0
228 -800 -225 0
-228 800 0
-228 225 0
229 -757 -25 0
-229 757 0
-229 25 0
230 -229 -36 0
-230 229 0
-230 36 0
231 -801 -228 0
-231 801 0
-231 228 0
232 -25 -9 0
-232 25 0
-232 9 0
233 -232 -30 0
-233 232 0
-233 30 0
234 -802 -231 0
-234 802 0
-234 231 0
235 -757 -13 0
-235 757 0
-235 13 0
236 -235 -12 0
-236 235 0
-236 12 0
237 -803 -234 0
-237 803 0
-237 234 0
238 -711 -7 0
-238 711 0
-238 7 0
239 -238 -22 0
-239 238 0
-239 22 0
240 -804 -237 0
-240 804 0
-240 237 0
241 -784 -21 0
-241 784 0
-241 21 0
242 -241 -12 0
-242 241 0
-242 12 0
243 -805 -240 0
-243 805 0
-243 240 0
244 -37 -728 0
-244 37 0
-244 728 0
245 -244 -707 0
-245 244 0
-245 707 0
246 -806 -243 0
-246 806 0
-246 243 0
247 -807 -808 0
-247 807 0
-247 808 0
248 -247 -734 0
-248 247 0
-248 734 0
249 -809 -246 0
-249 809 0
-249 246 0
250 -717 -7 0
-250 717 0
-250 7 0
251 -250 -810 0
-251 250 0
-251 810 0
252 -811 -249 0
-252 811 0
-252 249 0
253 -23 -2 0
-253 23 0
-253 2 0
254 -253 -36 0
-254 253 0
-254 36 0
255 -812 -252 0
-255 812 0
-255 252 0
256 -810 -21 0
-256 810 0
-256 21 0
257 -256 -6 0
-257 256 0
-257 6 0
258 -813 -255 0
-258 813 0
-258 255 0
259 -742 -9 0
-259 742 0
-259 9 0
260 -259 -808 0
-260 259 0
-260 808 0
261 -814 -258 0
-261 814 0
-261 258 0
262 -49 -24 0
-262 49 0
-262 24 0
263 -262 -15 0
-263 262 0
-263 15 0
264 -815 -261 0
-264 815 0
-264 261 0
265 -722 -6 0
-265 722 0
-265 6 0
266 -265 -746 0
-266 265 0
-266 746 0
267 -816 -264 0
-267 816 0
-267 264 0
268 -719 -14 0
-268 719 0
-268 14 0
269 -268 -2 0
-269 268 0
-269 2 0
270 -817 -267 0
-270 817 0
-270 267 0
271 -49 -717 0
-271 49 0
-271 717 0
272 -271 -719 0
-272 271 0
-272 719 0
273 -818 -270 0
-273 818 0
-273 270 0
274 -21 -2 0
-274 21 0
-274 2 0
275 -274 -724 0
-275 274 0
-275 724 0
276 -819 -273 0
-276 819 0
-276 273 0
277 -795 -1 0
-277 795 0
-277 1 0
278 -277 -715 0
-278 277 0
-278 715 0
279 -820 -276 0
-279 820 0
-279 276 0
280 -9 -8 0
-280 9 0
-280 8 0
281 -280 -749 0
-281 280 0
-281 749 0
282 -821 -279 0
-282 821 0
-282 279 0
283 -37 -8 0
-283 37 0
-283 8 0
284 -283 -749 0
-284 283 0
-284 749 0
285 -822 -282 0
-285 822 0
-285 282 0
286 -25 -711 0
-286 25 0
-286 711 0
287 -286 -698 0
-287 286 0
-287 698 0
288 -823 -285 0
-288 823 0
-288 285 0
289 -778 -701 0
-289 778 0
-289 701 0
290 -289 -810 0
-290 289 0
-290 810 0
291 -824 -288 0
-291 824 0
-291 288 0
292 -10 -730 0
-292 10 0
-292 730 0
293 -292 -36 0
-293 292 0
-293 36 0
294 -825 -291 0
-294 825 0
-294 291 0
295 -42 -16 0
-295 42 0
-295 16 0
296 -295 -23 0
-296 295 0
-296 23 0
297 -826 -294 0
-297 826 0
-297 294 0
298 -46 -704 0
-298 46 0
-298 704 0
299 -298 -746 0
-299 298 0
-299 746 0
300 -827 -297 0
-300 827 0
-300 297 0
301 -715 -730 0
-301 715 0
-301 730 0
302 -301 -828 0
-302 301 0
-302 828 0
303 -829 -300 0
-303 829 0
-303 300 0
304 -35 -17 0
-304 35 0
-304 17 0
305 -304 -36 0
-305 304 0
-305 36 0
306 -830 -303 0
-306 830 0
-306 303 0
307 -28 -698 0
-307 28 0
-307 698 0
308 -307 -715 0
-308 307 0
-308 715 0
309 -831 -306 0
-309 831 0
-309 306 0
310 -32 -724 0
-310 32 0
-310 724 0
311 -310 -36 0
-311 310 0
-311 36 0
312 -832 -309 0
-312 832 0
-312 309 0
313 -778 -31 0
-313 778 0
-313 31 0
314 -313 -46 0
-314 313 0
-314 46 0
315 -833 -312 0
-315 833 0
-315 312 0
316 -749 -9 0
-316 749 0
-316 9 0
317 -316 -746 0
-317 316 0
-317 746 0
318 -834 -315 0
-318 834 0
-318 315 0
319 -40 -19 0
-319 40 0
-319 19 0
320 -319 -44 0
-320 319 0
-320 44 0
321 -835 -318 0
-321 835 0
-321 318 0
322 -734 -704 0
-322 734 0
-322 704 0
323 -322 -721 0
-323 322 0
-323 721 0
324 -836 -321 0
-324 836 0
-324 321 0
325 -24 -20 0
-325 24 0
-325 20 0
326 -325 -2 0
-326 325 0
-326 2 0
327 -837 -324 0
-327 837 0
-327 324 0
328 -25 -781 0
-328 25 0
-328 781 0
329 -328 -838 0
-329 328 0
-329 838 0
330 -839 -327 0
-330 839 0
-330 327 0
331 -736 -24 0
-331 736 0
-331 24 0
332 -331 -715 0
-332 331 0
-332 715 0
333 -840 -330 0
-333 840 0
-333 330 0
334 -778 -737 0
-334 778 0
-334 737 0
335 -334 -48 0
-335 334 0
-335 48 0
336 -841 -333 0
-336 841 0
-336 333 0
337 -757 -788 0
-337 757 0
-337 788 0
338 -337 -784 0
-338 337 0
-338 784 0
339 -842 -336 0
-339 842 0
-339 336 0
340 -810 -784 0
-340 810 0
-340 784 0
341 -340 -12 0
-341 340 0
-341 12 0
342 -843 -339 0
-342 843 0
-342 339 0
343 -15 -1 0
-343 15 0
-343 1 0
344 -343 -23 0
-344 343 0
-344 23 0
345 -844 -342 0
-345 844 0
-345 342 0
346 -10 -9 0
-346 10 0
-346 9 0
347 -346 -22 0
-347 346 0
-347 22 0
348 -845 -345 0
-348 845 0
-348 345 0
349 -37 -795 0
-349 37 0
-349 795 0
350 -349 -704 0
-350 349 0
-350 704 0
351 -846 -348 0
-351 846 0
-351 348 0
352 -773 -728 0
-352 773 0
-352 728 0
353 -352 -721 0
-353 352 0
-353 721 0
354 -847 -351 0
-354 847 0
-354 351 0
355 -47 -828 0
-355 47 0
-355 828 0
356 -355 -746 0
-356 355 0
-356 746 0
357 -848 -354 0
-357 848 0
-357 354 0
358 -795 -697 0
-358 795 0
-358 697 0
359 -358 -47 0
-359 358 0
-359 47 0
360 -849 -357 0
-360 849 0
-360 357 0
361 -810 -778 0
-361 810 0
-361 778 0
362 -361 -752 0
-362 361 0
-362 752 0
363 -850 -360 0
-363 850 0
-363 360 0
364 -30 -1 0
-364 30 0
-364 1 0
365 -364 -6 0
-365 364 0
-365 6 0
366 -851 -363 0
-366 851 0
-366 363 0
367 -48 -26 0
-367 48 0
-367 26 0
368 -367 -784 0
-368 367 0
-368 784 0
369 -852 -366 0
-369 852 0
-369 366 0
370 -35 -20 0
-370 35 0
-370 20 0
371 -370 -46 0
-371 370 0
-371 46 0
372 -853 -369 0
-372 853 0
-372 369 0
373 -736 -1 0
-373 736 0
-373 1 0
374 -373 -697 0
-374 373 0
-374 697 0
375 -854 -372 0
-375 854 0
-375 372 0
376 -768 -24 0
-376 768 0
-376 24 0
377 -376 -18 0
-377 376 0
-377 18 0
378 -855 -375 0
-378 855 0
-378 375 0
379 -795 -717 0
-379 795 0
-379 717 0
380 -379 -734 0
-380 379 0
-380 734 0
381 -856 -378 0
-381 856 0
-381 378 0
382 -749 -784 0
-382 749 0
-382 784 0
383 -382 -721 0
-383 382 0
-383 721 0
384 -857 -381 0
-384 857 0
-384 381 0
385 -50 -749 0
-385 50 0
-385 749 0
386 -385 -15 0
-386 385 0
-386 15 0
387 -858 -384 0
-387 858 0
-387 384 0
388 -50 -1 0
-388 50 0
-388 1 0
389 -388 -781 0
-389 388 0
-389 781 0
390 -859 -387 0
-390 859 0
-390 387 0
391 -717 -9 0
-391 717 0
-391 9 0
392 -391 -828 0
-392 391 0
-392 828 0
393 -860 -390 0
-393 860 0
-393 390 0
394 -23 -745 0
-394 23 0
-394 745 0
395 -394 -838 0
-395 394 0
-395 838 0
396 -861 -393 0
-396 861 0
-396 393 0
397 -21 -16 0
-397 21 0
-397 16 0
398 -397 -746 0
-398 397 0
-398 746 0
399 -862 -396 0
-399 862 0
-399 396 0
400 -742 -808 0
-400 742 0
-400 808 0
401 -400 -711 0
-401 400 0
-401 711 0
402 -863 -399 0
-402 863 0
-402 399 0
403 -701 -726 0
-403 701 0
-403 726 0
404 -403 -47 0
-404 403 0
-404 47 0
405 -864 -402 0
-405 864 0
-405 402 0
406 -49 -4 0
-406 49 0
-406 4 0
407 -406 -781 0
-407 406 0
-407 781 0
408 -865 -405 0
-408 865 0
-408 405 0
409 -777 -7 0
-409 777 0
-409 7 0
410 -409 -14 0
-410 409 0
-410 14 0
411 -866 -408 0
-411 866 0
-411 408 0
412 -742 -710 0
-412 742 0
-412 710 0
413 -412 -781 0
-413 412 0
-413 781 0
414 -867 -411 0
-414 867 0
-414 411 0
415 -29 -10 0
-415 29 0
-415 10 0
416 -415 -14 0
-416 415 0
-416 14 0
417 -868 -414 0
-417 868 0
-417 414 0
418 -739 -20 0
-418 739 0
-418 20 0
419 -418 -777 0
-419 418 0
-419 777 0
420 -869 -417 0
-420 869 0
-420 417 0
421 -749 -8 0
-421 749 0
-421 8 0
422 -421 -746 0
-422 421 0
-422 746 0
423 -870 -420 0
-423 870 0
-423 420 0
424 -20 -705 0
-424 20 0
-424 705 0
425 -424 -704 0
-425 424 0
-425 704 0
426 -871 -423 0
-426 871 0
-426 423 0
427 -48 -17 0
-427 48 0
-427 17 0
428 -427 -21 0
-428 427 0
-428 21 0
429 -872 -426 0
-429 872 0
-429 426 0
430 -739 -7 0
-430 739 0
-430 7 0
431 -430 -808 0
-431 430 0
-431 808 0
432 -873 -429 0
-432 873 0
-432 429 0
433 -50 -713 0
-433 50 0
-433 713 0
434 -433 -43 0
-434 433 0
-434 43 0
435 -874 -432 0
-435 874 0
-435 432 0
436 -875 -2 0
-436 875 0
-436 2 0
437 -436 -11 0
-437 436 0
-437 11 0
438 -876 -435 0
-438 876 0
-438 435 0
439 -40 -788 0
-439 40 0
-439 788 0
440 -439 -773 0
-440 439 0
-440 773 0
441 -877 -438 0
-441 877 0
-441 438 0
442 -726 -3 0
-442 726 0
-442 3 0
443 -442 -30 0
-443 442 0
-443 30 0
444 -878 -441 0
-444 878 0
-444 441 0
445 -773 -3 0
-445 773 0
-445 3 0
446 -445 -11 0
-446 445 0
-446 11 0
447 -879 -444 0
-447 879 0
-447 444 0
448 -736 -31 0
-448 736 0
-448 31 0
449 -448 -791 0
-449 448 0
-449 791 0
450 -880 -447 0
-450 880 0
-450 447 0
451 -875 -788 0
-451 875 0
-451 788 0
452 -451 -702 0
-452 451 0
-452 702 0
453 -881 -450 0
-453 881 0
-453 450 0
454 -164 -6 0
-454 164 0
-454 6 0
455 -882 -453 0
-455 882 0
-455 453 0
456 -773 -41 0
-456 773 0
-456 41 0
457 -456 -11 0
-457 456 0
-457 11 0
458 -883 -455 0
-458 883 0
-458 455 0
459 -32 -16 0
-459 32 0
-459 16 0
460 -459 -737 0
-460 459 0
-460 737 0
461 -884 -458 0
-461 884 0
-461 458 0
462 -781 -5 0
-462 781 0
-462 5 0
463 -462 -704 0
-463 462 0
-463 704 0
464 -885 -461 0
-464 885 0
-464 461 0
465 -718 -737 0
-465 718 0
-465 737 0
466 -465 -42 0
-466 465 0
-466 42 0
467 -886 -464 0
-467 886 0
-467 464 0
468 -39 -717 0
-468 39 0
-468 717 0
469 -468 -752 0
-469 468 0
-469 752 0
470 -887 -467 0
-470 887 0
-470 467 0
471 -777 -8 0
-471 777 0
-471 8 0
472 -471 -23 0
-472 471 0
-472 23 0
473 -888 -470 0
-473 888 0
-473 470 0
474 -875 -777 0
-474 875 0
-474 777 0
475 -474 -771 0
-475 474 0
-475 771 0
476 -889 -473 0
-476 889 0
-476 473 0
477 -875 -10 0
-477 875 0
-477 10 0
478 -477 -788 0
-478 477 0
-478 788 0
479 -890 -476 0
-479 890 0
-479 476 0
480 -40 -705 0
-480 40 0
-480 705 0
481 -480 -15 0
-481 480 0
-481 15 0
482 -891 -479 0
-482 891 0
-482 479 0
483 -728 -4 0
-483 728 0
-483 4 0
484 -483 -1 0
-484 483 0
-484 1 0
485 -892 -482 0
-485 892 0
-485 482 0
486 -875 -19 0
-486 875 0
-486 19 0
487 -486 -29 0
-487 486 0
-487 29 0
488 -893 -485 0
-488 893 0
-488 485 0
489 -33 -698 0
-489 33 0
-489 698 0
490 -489 -47 0
-490 489 0
-490 47 0
491 -894 -488 0
-491 894 0
-491 488 0
492 -49 -768 0
-492 49 0
-492 768 0
493 -492 -737 0
-493 492 0
-493 737 0
494 -895 -491 0
-494 895 0
-494 491 0
495 -38 -736 0
-495 38 0
-495 736 0
496 -495 -21 0
-496 495 0
-496 21 0
497 -896 -494 0
-497 896 0
-497 494 0
498 -778 -28 0
-498 778 0
-498 28 0
499 -498 -838 0
-499 498 0
-499 838 0
500 -897 -497 0
-500 897 0
-500 497 0
501 -13 -701 0
-501 13 0
-501 701 0
502 -501 -29 0
-502 501 0
-502 29 0
503 -898 -500 0
-503 898 0
-503 500 0
504 -40 -717 0
-504 40 0
-504 717 0
505 -504 -2 0
-505 504 0
-505 2 0
506 -899 -503 0
-506 899 0
-506 503 0
507 -40 -35 0
-507 40 0
-507 35 0
508 -507 -6 0
-508 507 0
-508 6 0
509 -900 -506 0
-509 900 0
-509 506 0
510 -89 -757 0
-510 89 0
-510 757 0
511 -901 -509 0
-511 901 0
-511 509 0
512 -42 -31 0
-512 42 0
-512 31 0
513 -512 -23 0
-513 512 0
-513 23 0
514 -902 -511 0
-514 902 0
-514 511 0
515 -768 -702 0
-515 768 0
-515 702 0
516 -515 -746 0
-516 515 0
-516 746 0
517 -903 -514 0
-517 903 0
-517 514 0
518 -42 -13 0
-518 42 0
-518 13 0
519 -518 -784 0
-519 518 0
-519 784 0
520 -904 -517 0
-520 904 0
-520 517 0
521 -18 -10 0
-521 18 0
-521 10 0
522 -521 -21 0
-522 521 0
-522 21 0
523 -905 -520 0
-523 905 0
-523 520 0
524 -795 -8 0
-524 795 0
-524 8 0
525 -524 -828 0
-525 524 0
-525 828 0
526 -906 -523 0
-526 906 0
-526 523 0
527 -50 -757 0
-527 50 0
-527 757 0
528 -527 -47 0
-528 527 0
-528 47 0
529 -907 -526 0
-529 907 0
-529 526 0
530 -788 -745 0
-530 788 0
-530 745 0
531 -530 -722 0
-531 530 0
-531 722 0
532 -908 -529 0
-532 908 0
-532 529 0
533 -45 -808 0
-533 45 0
-533 808 0
534 -533 -726 0
-534 533 0
-534 726 0
535 -909 -532 0
-535 909 0
-535 532 0
536 -49 -719 0
-536 49 0
-536 719 0
537 -536 -791 0
-537 536 0
-537 791 0
538 -910 -535 0
-538 910 0
-538 535 0
539 -32 -795 0
-539 32 0
-539 795 0
540 -539 -48 0
-540 539 0
-540 48 0
541 -911 -538 0
-541 911 0
-541 538 0
542 -795 -13 0
-542 795 0
-542 13 0
543 -542 -46 0
-543 542 0
-543 46 0
544 -912 -541 0
-544 912 0
-544 541 0
545 -875 -46 0
-545 875 0
-545 46 0
546 -545 -1 0
-546 545 0
-546 1 0
547 -913 -544 0
-547 913 0
-547 544 0
548 -8 -769 0
-548 8 0
-548 769 0
549 -548 -791 0
-549 548 0
-549 791 0
550 -914 -547 0
-550 914 0
-550 547 0
551 -23 -713 0
-551 23 0
-551 713 0
552 -551 -746 0
-552 551 0
-552 746 0
553 -915 -550 0
-553 915 0
-553 550 0
554 -33 -28 0
-554 33 0
-554 28 0
555 -554 -746 0
-555 554 0
-555 746 0
556 -916 -553 0
-556 916 0
-556 553 0
557 -24 -808 0
-557 24 0
-557 808 0
558 -557 -698 0
-558 557 0
-558 698 0
559 -917 -556 0
-559 917 0
-559 556 0
560 -742 -702 0
-560 742 0
-560 702 0
561 -560 -3 0
-561 560 0
-561 3 0
562 -918 -559 0
-562 918 0
-562 559 0
563 -32 -752 0
-563 32 0
-563 752 0
564 -563 -746 0
-564 563 0
-564 746 0
565 -919 -562 0
-565 919 0
-565 562 0
566 -25 -8 0
-566 25 0
-566 8 0
567 -566 -2 0
-567 566 0
-567 2 0
568 -920 -565 0
-568 920 0
-568 565 0
569 -48 -711 0
-569 48 0
-569 711 0
570 -569 -36 0
-570 569 0
-570 36 0
571 -921 -568 0
-571 921 0
-571 568 0
572 -838 -722 0
-572 838 0
-572 722 0
573 -572 -44 0
-573 572 0
-573 44 0
574 -922 -571 0
-574 922 0
-574 571 0
575 -37 -27 0
-575 37 0
-575 27 0
576 -575 -36 0
-576 575 0
-576 36 0
577 -923 -574 0
-577 923 0
-577 574 0
578 -29 -16 0
-578 29 0
-578 16 0
579 -578 -43 0
-579 578 0
-579 43 0
580 -924 -577 0
-580 924 0
-580 577 0
581 -45 -10 0
-581 45 0
-581 10 0
582 -581 -734 0
-582 581 0
-582 734 0
583 -925 -580 0
-583 925 0
-583 580 0
584 -32 -808 0
-584 32 0
-584 808 0
585 -584 -43 0
-585 584 0
-585 43 0
586 -926 -583 0
-586 926 0
-586 583 0
587 -737 -5 0
-587 737 0
-587 5 0
588 -587 -2 0
-588 587 0
-588 2 0
589 -927 -586 0
-589 927 0
-589 586 0
590 -28 -752 0
-590 28 0
-590 752 0
591 -590 -12 0
-591 590 0
-591 12 0
592 -928 -589 0
-592 928 0
-592 589 0
593 -48 -45 0
-593 48 0
-593 45 0
594 -593 -722 0
-594 593 0
-594 722 0
595 -929 -592 0
-595 929 0
-595 592 0
596 -734 -28 0
-596 734 0
-596 28 0
597 -596 -47 0
-597 596 0
-597 47 0
598 -930 -595 0
-598 930 0
-598 595 0
599 -768 -730 0
-599 768 0
-599 730 0
600 -599 -12 0
-600 599 0
-600 12 0
601 -931 -598 0
-601 931 0
-601 598 0
602 -18 -7 0
-602 18 0
-602 7 0
603 -602 -44 0
-603 602 0
-603 44 0
604 -932 -601 0
-604 932 0
-604 601 0
605 -247 -27 0
-605 247 0
-605 27 0
606 -933 -604 0
-606 933 0
-606 604 0
607 -795 -10 0
-607 795 0
-607 10 0
608 -607 -35 0
-608 607 0
-608 35 0
609 -934 -606 0
-609 934 0
-609 606 0
610 -734 -752 0
-610 734 0
-610 752 0
611 -610 -781 0
-611 610 0
-611 781 0
612 -935 -609 0
-612 935 0
-612 609 0
613 -728 -29 0
-613 728 0
-613 29 0
614 -613 -1 0
-614 613 0
-614 1 0
615 -936 -612 0
-615 936 0
-615 612 0
616 -778 -705 0
-616 778 0
-616 705 0
617 -616 -810 0
-617 616 0
-617 810 0
618 -937 -615 0
-618 937 0
-618 615 0
619 -742 -705 0
-619 742 0
-619 705 0
620 -619 -18 0
-620 619 0
-620 18 0
621 -938 -618 0
-621 938 0
-621 618 0
622 -788 -713 0
-622 788 0
-622 713 0
623 -622 -711 0
-623 622 0
-623 711 0
624 -939 -621 0
-624 939 0
-624 621 0
625 -771 -715 0
-625 771 0
-625 715 0
626 -625 -838 0
-626 625 0
-626 838 0
627 -940 -624 0
-627 940 0
-627 624 0
628 -42 -9 0
-628 42 0
-628 9 0
629 -628 -722 0
-629 628 0
-629 722 0
630 -941 -627 0
-630 941 0
-630 627 0
631 -433 -40 0
-631 433 0
-631 40 0
632 -942 -630 0
-632 942 0
-632 630 0
633 -795 -19 0
-633 795 0
-633 19 0
634 -633 -12 0
-634 633 0
-634 12 0
635 -943 -632 0
-635 943 0
-635 632 0
636 -701 -1 0
-636 701 0
-636 1 0
637 -636 -791 0
-637 636 0
-637 791 0
638 -944 -635 0
-638 944 0
-638 635 0
639 -45 -39 0
-639 45 0
-639 39 0
640 -639 -771 0
-640 639 0
-640 771 0
641 -945 -638 0
-641 945 0
-641 638 0
642 -32 -717 0
-642 32 0
-642 717 0
643 -642 -40 0
-643 642 0
-643 40 0
644 -946 -641 0
-644 946 0
-644 641 0
645 -719 -717 0
-645 719 0
-645 717 0
646 -645 -40 0
-646 645 0
-646 40 0
647 -947 -644 0
-647 947 0
-647 644 0
648 -23 -708 0
-648 23 0
-648 708 0
649 -648 -6 0
-649 648 0
-649 6 0
650 -948 -647 0
-650 948 0
-650 647 0
651 -15 -7 0
-651 15 0
-651 7 0
652 -651 -48 0
-652 651 0
-652 48 0
653 -949 -650 0
-653 949 0
-653 650 0
654 -40 -18 0
-654 40 0
-654 18 0
655 -654 -44 0
-655 654 0
-655 44 0
656 -950 -653 0
-656 950 0
-656 653 0
657 -713 -730 0
-657 713 0
-657 730 0
658 -657 -27 0
-658 657 0
-658 27 0
659 -951 -656 0
-659 951 0
-659 656 0
660 -708 -10 0
-660 708 0
-660 10 0
661 -660 -21 0
-661 660 0
-661 21 0
662 -952 -659 0
-662 952 0
-662 659 0
663 -15 -769 0
-663 15 0
-663 769 0
664 -663 -35 0
-664 663 0
-664 35 0
665 -953 -662 0
-665 953 0
-665 662 0
666 -524 -778 0
-666 524 0
-666 778 0
667 -954 -665 0
-667 954 0
-667 665 0
668 -757 -8 0
-668 757 0
-668 8 0
669 -668 -697 0
-669 668 0
-669 697 0
670 -955 -667 0
-670 955 0
-670 667 0
671 -15 -8 0
-671 15 0
-671 8 0
672 -671 -721 0
-672 671 0
-672 721 0
673 -956 -670 0
-673 956 0
-673 670 0
674 -38 -14 0
-674 38 0
-674 14 0
675 -674 -757 0
-675 674 0
-675 757 0
676 -957 -673 0
-676 957 0
-676 673 0
677 -49 -8 0
-677 49 0
-677 8 0
678 -677 -702 0
-678 677 0
-678 702 0
679 -958 -676 0
-679 958 0
-679 676 0
680 -710 -701 0
-680 710 0
-680 701 0
681 -680 -757 0
-681 680 0
-681 757 0
682 -959 -679 0
-682 959 0
-682 679 0
683 -768 -784 0
-683 768 0
-683 784 0
684 -683 -828 0
-684 683 0
-684 828 0
685 -960 -682 0
-685 960 0
-685 682 0
686 -778 -7 0
-686 778 0
-686 7 0
687 -686 -27 0
-687 686 0
-687 27 0
688 -961 -685 0
-688 961 0
-688 685 0
689 -83 -773 0
-689 83 0
-689 773 0
690 -962 -688 0
-690 962 0
-690 688 0
691 -24 -10 0
-691 24 0
-691 10 0
692 -691 -31 0
-692 691 0
-692 31 0
693 -963 -690 0
-693 963 0
-693 690 0
694 -739 -705 0
-694 739 0
-694 705 0
695 -694 -24 0
-695 694 0
-695 24 0
696 -964 -693 0
-696 964 0
-696 693 0
-697 -2 0
697 2 0
-698 -3 0
698 3 0
-699 -54 0
699 54 0
-700 -52 0
700 52 0
-701 -8 0
701 8 0
-702 -9 0
702 9 0
-703 -57 0
703 57 0
-704 -11 0
704 11 0
-705 -10 0
705 10 0
-706 -60 0
706 60 0
-707 -14 0
707 14 0
-708 -15 0
708 15 0
-709 -63 0
709 63 0
-710 -16 0
710 16 0
-711 -18 0
711 18 0
-712 -66 0
712 66 0
-713 -20 0
713 20 0
-714 -69 0
714 69 0
-715 -23 0
715 23 0
-716 -72 0
716 72 0
-717 -25 0
717 25 0
-718 -24 0
718 24 0
-719 -26 0
719 26 0
-720 -75 0
720 75 0
-721 -27 0
721 27 0
-722 -28 0
722 28 0
-723 -78 0
723 78 0
-724 -30 0
724 30 0
-725 -81 0
725 81 0
-726 -5 0
726 5 0
-727 -84 0
727 84 0
-728 -32 0
728 32 0
-729 -87 0
729 87 0
-730 -7 0
730 7 0
-731 -90 0
731 90 0
-732 -93 0
732 93 0
-733 -96 0
733 96 0
-734 -35 0
734 35 0
-735 -99 0
735 99 0
-736 -37 0
736 37 0
-737 -13 0
737 13 0
-738 -102 0
738 102 0
-739 -38 0
739 38 0
-740 -105 0
740 105 0
-741 -108 0
741 108 0
-742 -41 0
742 41 0
-743 -111 0
743 111 0
-744 -114 0
744 114 0
-745 -19 0
745 19 0
-746 -44 0
746 44 0
-747 -117 0
747 117 0
-748 -120 0
748 120 0
-749 -29 0
749 29 0
-750 -123 0
750 123 0
-751 -126 0
751 126 0
-752 -1 0
752 1 0
-753 -129 0
753 129 0
-754 -132 0
754 132 0
-755 -135 0
755 135 0
-756 -138 0
756 138 0
-757 -46 0
757 46 0
-758 -141 0
758 141 0
-759 -144 0
759 144 0
-760 -147 0
760 147 0
-761 -150 0
761 150 0
-762 -153 0
762 153 0
-763 -156 0
763 156 0
-764 -159 0
764 159 0
-765 -6 0
765 6 0
-766 -162 0
766 162 0
-767 -165 0
767 165 0
-768 -45 0
768 45 0
-769 -4 0
769 4 0
-770 -168 0
770 168 0
-771 -47 0
771 47 0
-772 -171 0
772 171 0
-773 -48 0
773 48 0
-774 -174 0
774 174 0
-775 -49 0
775 49 0
-776 -177 0
776 177 0
-777 -43 0
777 43 0
-778 -39 0
778 39 0
-779 -180 0
779 180 0
-780 -183 0
780 183 0
-781 -21 0
781 21 0
-782 -186 0
782 186 0
-783 -189 0
783 189 0
-784 -22 0
784 22 0
-785 -192 0
785 192 0
-786 -195 0
786 195 0
-787 -198 0
787 198 0
-788 -33 0
788 33 0
-789 -201 0
789 201 0
-790 -204 0
790 204 0
-791 -42 0
791 42 0
-792 -207 0
792 207 0
-793 -210 0
793 210 0
-794 -213 0
794 213 0
-795 -31 0
795 31 0
-796 -216 0
796 216 0
-797 -219 0
797 219 0
-798 -222 0
798 222 0
-799 -224 0
799 224 0
-800 -227 0
800 227 0
-801 -230 0
801 230 0
-802 -233 0
802 233 0
-803 -236 0
803 236 0
-804 -239 0
804 239 0
-805 -242 0
805 242 0
-806 -245 0
806 245 0
-807 -34 0
807 34 0
-808 -17 0
808 17 0
-809 -248 0
809 248 0
-810 -40 0
810 40 0
-811 -251 0
811 251 0
-812 -254 0
812 254 0
-813 -257 0
813 257 0
-814 -260 0
814 260 0
-815 -263 0
815 263 0
-816 -266 0
816 266 0
-817 -269 0
817 269 0
-818 -272 0
818 272 0
-819 -275 0
819 275 0
-820 -278 0
820 278 0
-821 -281 0
821 281 0
-822 -284 0
822 284 0
-823 -287 0
823 287 0
-824 -290 0
824 290 0
-825 -293 0
825 293 0
-826 -296 0
826 296 0
-827 -299 0
827 299 0
-828 -12 0
828 12 0
-829 -302 0
829 302 0
-830 -305 0
830 305 0
-831 -308 0
831 308 0
-832 -311 0
832 311 0
-833 -314 0
833 314 0
-834 -317 0
834 317 0
-835 -320 0
835 320 0
-836 -323 0
836 323 0
-837 -326 0
837 326 0
-838 -36 0
838 36 0
-839 -329 0
839 329 0
-840 -332 0
840 332 0
-841 -335 0
841 335 0
-842 -338 0
842 338 0
-843 -341 0
843 341 0
-844 -344 0
844 344 0
-845 -347 0
845 347 0
-846 -350 0
846 350 0
-847 -353 0
847 353 0
-848 -356 0
848 356 0
-849 -359 0
849 359 0
-850 -362 0
850 362 0
-851 -365 0
851 365 0
-852 -368 0
852 368 0
-853 -371 0
853 371 0
-854 -374 0
854 374 0
-855 -377 0
855 377 0
-856 -380 0
856 380 0
-857 -383 0
857 383 0
-858 -386 0
858 386 0
-859 -389 0
859 389 0
-860 -392 0
860 392 0
-861 -395 0
861 395 0
-862 -398 0
862 398 0
-863 -401 0
863 401 0
-864 -404 0
864 404 0
-865 -407 0
865 407 0
-866 -410 0
866 410 0
-867 -413 0
867 413 0
-868 -416 0
868 416 0
-869 -419 0
869 419 0
-870 -422 0
870 422 0
-871 -425 0
871 425 0
-872 -428 0
872 428 0
-873 -431 0
873 431 0
-874 -434 0
874 434 0
-875 -50 0
875 50 0
-876 -437 0
876 437 0
-877 -440 0
877 440 0
-878 -443 0
878 443 0
-879 -446 0
879 446 0
-880 -449 0
880 449 0
-881 -452 0
881 452 0
-882 -454 0
882 454 0
-883 -457 0
883 457 0
-884 -460 0
884 460 0
-885 -463 0
885 463 0
-886 -466 0
886 466 0
-887 -469 0
887 469 0
-888 -472 0
888 472 0
-889 -475 0
889 475 0
-890 -478 0
890 478 0
-891 -481 0
891 481 0
-892 -484 0
892 484 0
-893 -487 0
893 487 0
-894 -490 0
894 490 0
-895 -493 0
895 493 0
-896 -496 0
896 496 0
-897 -499 0
897 499 0
-898 -502 0
898 502 0
-899 -505 0
899 505 0
-900 -508 0
900 508 0
-901 -510 0
901 510 0
-902 -513 0
902 513 0
-903 -516 0
903 516 0
-904 -519 0
904 519 0
-905 -522 0
905 522 0
-906 -525 0
906 525 0
-907 -528 0
907 528 0
-908 -531 0
908 531 0
-909 -534 0
909 534 0
-910 -537 0
910 537 0
-911 -540 0
911 540 0
-912 -543 0
912 543 0
-913 -546 0
913 546 0
-914 -549 0
914 549 0
-915 -552 0
915 552 0
-916 -555 0
916 555 0
-917 -558 0
917 558 0
-918 -561 0
918 561 0
-919 -564 0
919 564 0
-920 -567 0
920 567 0
-921 -570 0
921 570 0
-922 -573 0
922 573 0
-923 -576 0
923 576 0
-924 -579 0
924 579 0
-925 -582 0
925 582 0
-926 -585 0
926 585 0
-927 -588 0
927 588 0
-928 -591 0
928 591 0
-929 -594 0
929 594 0
-930 -597 0
930 597 0
-931 -600 0
931 600 0
-932 -603 0
932 603 0
-933 -605 0
933 605 0
-934 -608 0
934 608 0
-935 -611 0
935 611 0
-936 -614 0
936 614 0
-937 -617 0
937 617 0
-938 -620 0
938 620 0
-939 -623 0
939 623 0
-940 -626 0
940 626 0
-941 -629 0
941 629 0
-942 -631 0
942 631 0
-943 -634 0
943 634 0
-944 -637 0
944 637 0
-945 -640 0
945 640 0
-946 -643 0
946 643 0
-947 -646 0
947 646 0
-948 -649 0
948 649 0
-949 -652 0
949 652 0
-950 -655 0
950 655 0
-951 -658 0
951 658 0
-952 -661 0
952 661 0
-953 -664 0
953 664 0
-954 -666 0
954 666 0
-955 -669 0
955 669 0
-956 -672 0
956 672 0
-957 -675 0
957 675 0
-958 -678 0
958 678 0
-959 -681 0
959 681 0
-960 -684 0
960 684 0
-961 -687 0
961 687 0
-962 -689 0
962 689 0
-963 -692 0
963 692 0
-964 -695 0
964 695 0
696 0
